# evaporation between two panel
# author: davida9966
# Date: 2020-03-18
# Evaporation

#计算基本设置
processors 2 4 4

# 体系基础设置
units       real
boundary    p f f
dimension   3
atom_style  atomic

#计算域设置
lattice     fcc 5.3118
region      box block 0 5  0 60  0 90

read_restart vapor20200318.restart.240000
#write_data	data.setup.txt nocoeff

# 相互作用
pair_style	lj/cut 17.025
pair_coeff	1 1	0.238065 3.405 17.025
pair_coeff	2*3 2*3 13.1 3.405 17.025
pair_coeff	1 2*3 0.2 3.405 17.025
#遍历域
neighbor		2.0 bin
neigh_modify	every 20 delay 0 check no
#控温&镜面边界条件
group	argon	type 1
group	walls	type 2 3
fix		fixwall	walls	spring/self	1.0
#velocity	all	create	100.0 53627542
fix     fixall  all     nve       #动力学积分
#控温所需新的group
region  left_wall_qout  block   EDGE EDGE   0.5 20.5   1.0 15.0
region  right_wall_qout block   EDGE EDGE   40.6 59.6  1.0 15.0
region  left_wall_qin   block   EDGE EDGE   0.5 20.5   35.0 50.0
region  right_wall_qin  block   EDGE EDGE   40.6 59.6  35.0 50.0
#壁面热流输入
group   qin_left     region     left_wall_qin
group   qin_right    region     right_wall_qin
group   qout_left    region     left_wall_qout
group   qout_right   region     right_wall_qout
fix     qin_left     qin_left     heat   10   2.3855e-23  #按照每飞秒蒸发1个原子计算
fix     qin_right    qin_right    heat   10   2.3855e-23
fix     qout_left    qout_left    heat   10  -2.3855e-23
fix     qout_right   qout_right   heat   10  -2.3855e-23


#fix     temp1   walls
fix	    zwalls	walls     wall/reflect	zlo EDGE    zhi EDGE
fix     zwalls2 argon     wall/reflect  zlo EDGE    zhi EDGE		# reflect wall
fix	    ywalls	all       wall/reflect	ylo EDGE	yhi EDGE
#fix argongravity argon gravity 9.37e-14 vector 0 0 -1

#气液相识别
compute voro argon voronoi/atom
dump output_voro argon  custom 5000 voro.0323.data.txt id c_voro[1]

variable vapor atom c_voro[1]>323
variable liquid atom c_voro[1]<=323
group vapor dynamic argon var vapor every 10
group liquid dynamic argon var liquid every 10

#统计从壁面蒸发的原子和从meniscus蒸发的原子
#variable z0 equal  52.0                     #指定要被穿过的平面的纵坐标
#variable epsilon equal                       #适当小量
#variable cross_t atom (v_z0-z)/(vz+epsilon) # 原子到达要被穿过的平面的用时
#variable cross_y atom y+vy*cross_t          # 原子轨迹和要被穿过的平面的交点y坐标
#variable n_passI  atom c_voro[1]>323 && vz >0 && cross_t < 1 && cross_y <20.5                  #满足 通过I 的几何要求"
#variable n_passII atom c_voro[1]>323 && vz >0 && cross_t < 1 && cross_y >20.5 && cross_y<40.5  #满足 通过II 的几何要求"
#variable n_passI  atom c_voro[1]>323 && vz >0 && cross_t < 1 && cross_y >40.5                  #满足 通过I 的几何要求"


#温度输出
compute liquidtemp liquid temp
compute vaportemp vapor temp
compute walltemp walls temp
fix temp all ave/time 100 100 10000 c_liquidtemp c_vaportemp c_walltemp file temp.0318.data.txt

#气相原子蒸发位置追踪，加上蒸发质量流率的检测
dump output_vapor_trace vapor custom 500 tracevapor.0323.dat id x y z

dump	dump1	all	atom 5000 dump.0323.evaporflux.lammpstrj
restart	100000	vaporflux0318.restart

thermo	2500
thermo_modify flush yes
timestep	1
run		1500000
