# evaporation between two panel
# author: davida9966
# Date: 2020-03-29
# Evaporation

#计算基本设置
processors 2 4 4

# 体系基础设置
units       real
boundary    p p f
dimension   3
atom_style  atomic

#计算域设置
lattice     fcc 5.3118
region      box block 0 5  0 30  0 140

read_restart relax_20nmstep_0327.restart.300000
write_data	data.flux_20nmstep_0329.txt nocoeff

# 相互作用
pair_style	lj/cut 17.025
pair_coeff	1 1	0.238065 3.405 17.025
pair_coeff	2*3 2*3 13.1 3.405 17.025
pair_coeff	1 2*3 0.2 3.405 17.025
#遍历域
neighbor		2.0 bin
neigh_modify	every 20 delay 0 check no
#控温&镜面边界条件
group	argon	type 1
group	walls	type 2 3
fix		fixwall	walls	spring/self	1.0

fix     fixall   all    nve                                                  #动力学积分
fix	    zwalls	walls     wall/reflect	zlo EDGE    zhi EDGE
fix     zwalls2 argon     wall/reflect  zlo EDGE    zhi EDGE		    # reflect wall

#控温所需新的group
region  left_wall_qout  block   EDGE EDGE   0.5  10.0    10.2 20.0
region  right_wall_qout block   EDGE EDGE   20.0 29.6    10.2 20.0
region  left_wall_qin   block   EDGE EDGE   0.5  4.9    50.0 60.0
region  right_wall_qin  block   EDGE EDGE   25.1 29.6   50.0 60.0
#壁面热流输入
group   qin_left     region     left_wall_qin
group   qin_right    region     right_wall_qin
group   qout_left    region     left_wall_qout
group   qout_right   region     right_wall_qout
fix     qin_left     qin_left     heat   10   2.3855e-23  #按照每飞秒蒸发1个原子计算
fix     qin_right    qin_right    heat   10   2.3855e-23
fix     qout_left    qout_left    heat   10  -2.3855e-23
fix     qout_right   qout_right   heat   10  -2.3855e-23

#气液相识别
compute voro argon voronoi/atom
dump output_voro argon  custom 2500 voro.0329step.dat id c_voro[1] x y z

variable vapor atom c_voro[1]>323
variable liquid atom c_voro[1]<=323
group vapor dynamic argon var vapor every 10
group liquid dynamic argon var liquid every 10

#气相原子蒸发位置追踪，加上蒸发质量流率的检测
dump output_vapor_trace vapor custom 500 tracevapor.0329step.dat id x y z

#温度输出
compute liquidtemp liquid temp
compute vaportemp vapor temp
compute walltemp walls temp
fix temp all ave/time 100 100 10000 c_liquidtemp c_vaportemp c_walltemp file temp.0329step.dat


dump	dump1	all	atom 2500 dump.0329step.lammpstrj
restart	150000	relax_20200324.restart

thermo	2500
thermo_modify flush yes
timestep	1
run		1500000
